(declare-fun IN_0 () Real)
(declare-fun f_IN_0 () Real)
(declare-fun fp_IN_0 () Real)
(declare-fun x_0 () Real)
(declare-fun return_0 () Real)
(assert (and (and (and (= f_IN_0 (+ (+ (- IN_0 (/ (* (* IN_0 IN_0) IN_0) 6)) (/ (* (* (* (* IN_0 IN_0) IN_0) IN_0) IN_0) 120)) (/ (* (* (* (* (* (* IN_0 IN_0) IN_0) IN_0) IN_0) IN_0) IN_0) 5040))) (= fp_IN_0 (+ (+ (- 1 (/ (* IN_0 IN_0) 2)) (/ (* (* (* IN_0 IN_0) IN_0) IN_0) 24)) (/ (* (* (* (* (* IN_0 IN_0) IN_0) IN_0) IN_0) IN_0) 720)))) (= x_0 (- IN_0 (/ f_IN_0 fp_IN_0)))) (= return_0 x_0)))
(assert (and (> (+ IN_0 2.0) 0) (< IN_0 2.0)))
(assert (not (< return_0 0.1)))
(check-sat)
(get-model)